Gurobi Optimizer version 9.1.2 build v9.1.2rc0 (linux64)
Thread count: 36 physical cores, 72 logical processors, using up to 32 threads
Optimize a model with 12 rows, 57 columns and 590 nonzeros
Model fingerprint: 0xf32eec78
Model has 47 quadratic constraints
Coefficient statistics:
  Matrix range     [2e-05, 3e+00]
  QMatrix range    [1e+00, 1e+00]
  QLMatrix range   [1e+00, 1e+00]
  Objective range  [8e-03, 7e-01]
  Bounds range     [1e+00, 1e+00]
  RHS range        [1e+00, 1e+00]
Presolve removed 9 rows and 0 columns

Continuous model is non-convex -- solving as a MIP.

Presolve removed 9 rows and 0 columns
Presolve time: 0.00s
Presolved: 189 rows, 57 columns, 443 nonzeros
Presolved model has 47 bilinear constraint(s)
Variable types: 57 continuous, 0 integer (0 binary)

Root relaxation: objective -1.743721e+00, 44 iterations, 0.00 seconds

    Nodes    |    Current Node    |     Objective Bounds      |     Work
 Expl Unexpl |  Obj  Depth IntInf | Incumbent    BestBd   Gap | It/Node Time

     0     0   -1.74372    0   38          -   -1.74372      -     -    0s
H    0     0                       0.6147548   -1.74372   384%     -    0s
     0     0   -1.64739    0    1    0.61475   -1.64739   368%     -    0s
H    0     0                      -1.6450460   -1.64739  0.14%     -    0s
     0     0     cutoff    0        -1.64505   -1.64505  0.00%     -    0s

Cutting planes:
  RLT: 25
  BQP: 3

Explored 1 nodes (76 simplex iterations) in 0.01 seconds
Thread count was 32 (of 72 available processors)

Solution count 2: -1.64505 0.614755 
No other solutions better than -1.64505

Optimal solution found (tolerance 1.00e-04)
Best objective -1.645045978473e+00, best bound -1.645045978473e+00, gap 0.0000%

User-callback calls 78, time in user-callback 0.00 sec
Gurobi Optimizer version 9.1.2 build v9.1.2rc0 (linux64)
Thread count: 36 physical cores, 72 logical processors, using up to 32 threads
Optimize a model with 24 rows, 125 columns and 2580 nonzeros
Model fingerprint: 0xf2934455
Model has 105 quadratic constraints
Coefficient statistics:
  Matrix range     [6e-06, 5e+01]
  QMatrix range    [1e+00, 1e+00]
  QLMatrix range   [1e+00, 1e+00]
  Objective range  [1e-02, 1e+00]
  Bounds range     [1e+00, 1e+00]
  RHS range        [1e+00, 1e+00]
Presolve removed 10 rows and 0 columns

Continuous model is non-convex -- solving as a MIP.

Presolve removed 10 rows and 0 columns
Presolve time: 0.00s
Presolved: 429 rows, 125 columns, 2142 nonzeros
Presolved model has 105 bilinear constraint(s)
Variable types: 125 continuous, 0 integer (0 binary)

Root relaxation: objective -4.383255e+00, 134 iterations, 0.00 seconds

    Nodes    |    Current Node    |     Objective Bounds      |     Work
 Expl Unexpl |  Obj  Depth IntInf | Incumbent    BestBd   Gap | It/Node Time

     0     0   -4.38326    0   75          -   -4.38326      -     -    0s
H    0     0                       0.2689841   -4.38326  1730%     -    0s
     0     0   -3.66194    0   83    0.26898   -3.66194  1461%     -    0s
H    0     0                      -1.7283331   -3.66194   112%     -    0s
     0     0   -3.65149    0   52   -1.72833   -3.65149   111%     -    0s
     0     0   -3.52554    0   95   -1.72833   -3.52554   104%     -    0s
     0     0   -3.49979    0   83   -1.72833   -3.49979   102%     -    0s
     0     0   -3.45723    0   39   -1.72833   -3.45723   100%     -    0s
     0     0   -3.45548    0   68   -1.72833   -3.45548   100%     -    0s
     0     0   -3.44492    0   47   -1.72833   -3.44492  99.3%     -    0s
     0     0   -3.44179    0   47   -1.72833   -3.44179  99.1%     -    0s
     0     0   -3.43719    0   78   -1.72833   -3.43719  98.9%     -    0s
H    0     0                      -1.7329309   -3.43719  98.3%     -    0s
     0     0   -3.43691    0   83   -1.73293   -3.43691  98.3%     -    0s
     0     0   -3.43673    0   94   -1.73293   -3.43673  98.3%     -    0s
H    0     0                      -2.2354845   -3.43673  53.7%     -    0s
H    0     0                      -2.5590842   -3.43673  34.3%     -    0s
H    0     0                      -2.6514926   -3.43673  29.6%     -    0s
H    0     0                      -2.6844263   -3.43673  28.0%     -    0s
H    0     0                      -2.8782882   -3.43673  19.4%     -    0s
     0     2   -3.43673    0   94   -2.87829   -3.43673  19.4%     -    0s
*  288    79              12      -2.8790812   -2.96337  2.93%  22.9    0s
*  327    83              12      -2.8792526   -2.96337  2.92%  21.1    0s
*  329    83              13      -2.8793013   -2.96337  2.92%  21.0    0s
*  336    83              12      -2.8793667   -2.96337  2.92%  20.7    0s
*  438   106              14      -2.8800489   -2.91471  1.20%  17.1    0s
*  444   106              15      -2.8800925   -2.91471  1.20%  16.9    0s
*  486   149              20      -2.8805106   -2.91471  1.19%  15.9    0s
*  499   149              16      -2.8855838   -2.91471  1.01%  15.6    0s
*  578    77              21      -2.8858865   -2.90541  0.68%  14.1    0s
*  579    77              21      -2.8859067   -2.90541  0.68%  14.1    0s
*  580    77              20      -2.8859072   -2.90541  0.68%  14.0    0s
*  604    77              16      -2.8859556   -2.90541  0.67%  13.5    0s
*  650    77              17      -2.8869106   -2.90541  0.64%  12.6    0s
*  666    29              18      -2.8871311   -2.90164  0.50%  12.4    0s
*  683    29              21      -2.8872754   -2.89247  0.18%  12.3    0s
*  684    29              21      -2.8872884   -2.89247  0.18%  12.3    0s
*  685    29              20      -2.8872999   -2.89247  0.18%  12.2    0s
*  699    29              20      -2.8873122   -2.89247  0.18%  12.1    0s
*  756    15              16      -2.8873834   -2.89054  0.11%  11.4    0s
*  773    15              16      -2.8874124   -2.88817  0.03%  11.2    0s
*  774    15              16      -2.8874235   -2.88817  0.03%  11.2    0s

Cutting planes:
  RLT: 49
  BQP: 7
  PSD: 7

Explored 805 nodes (9135 simplex iterations) in 0.39 seconds
Thread count was 32 (of 72 available processors)

Solution count 10: -2.88742 -2.88741 -2.88738 ... -2.88596

Optimal solution found (tolerance 1.00e-04)
Best objective -2.887423462954e+00, best bound -2.887570327375e+00, gap 0.0051%

User-callback calls 1893, time in user-callback 0.00 sec



objective value: -2.8874234629537643
objective bound: -2.8875703273754874
x_opt: [1.0, 0.0, 1.0, 0.0, 0.13568323910119362, 5.110700370258793e-8, 1.0, 1.0, 0.53066462851813, 0.0, 0.0, 0.0, 0.6773122082840527, 0.0, 0.4510806937706862, 0.2929311479967641, 0.0, 0.0, 0.0, 0.0]
GUROBI solution time: 0.39336609840393066




